32      1       
16      
0       0       1       2       
9       1       1       3       
4       1       2       8       4       
5       1       1       5       
6       1       2       7       6       
4       3       2       12      9       
5       1       1       10      
10      1       1       9       
4       2       2       13      11      
3       7       2       13      11      
4       1       3       17      15      14      
7       1       3       17      15      14      
5       1       1       14      
2       1       3       24      18      16      
5       7       2       24      16      
3       1       3       22      20      19      
10      1       3       23      20      19      
5       1       3       23      22      20      
10      1       1       21      
5       1       1       25      
8       4       1       25      
5       1       1       25      
5       1       1       25      
3       1       1       25      
1       1       2       27      26      
1       1       2       29      28      
4       1       1       28      
2       1       2       31      30      
9       1       1       30      
6       1       1       32      
8       1       1       32      
0       0       0       
